************************************************************************
file with basedata            : j60_34.bas
initial value random generator: 28351225
************************************************************************
projects                      :  1
jobs (incl. supersource/sink ):  62
horizon                       :  320
RESOURCES
  - renewable                 :  4   R
  - nonrenewable              :  0   N
  - doubly constrained        :  0   D
************************************************************************
PROJECT INFORMATION:
pronr.  #jobs rel.date duedate tardcost  MPM-Time
    1     60      0       61       30       61
************************************************************************
PRECEDENCE RELATIONS:
jobnr.    #modes  #successors   successors
   1        1          3           2   3   4
   2        1          3           5   7  14
   3        1          3           6  10  28
   4        1          1          13
   5        1          1          32
   6        1          2          12  22
   7        1          3           8   9  15
   8        1          2          18  24
   9        1          2          34  37
  10        1          3          11  33  44
  11        1          3          13  20  36
  12        1          3          19  25  27
  13        1          1          26
  14        1          3          16  22  26
  15        1          1          21
  16        1          2          17  38
  17        1          1          41
  18        1          2          35  36
  19        1          3          29  31  33
  20        1          1          37
  21        1          1          50
  22        1          3          23  38  42
  23        1          2          31  44
  24        1          2          27  46
  25        1          2          39  54
  26        1          3          40  41  51
  27        1          3          30  37  45
  28        1          1          47
  29        1          1          51
  30        1          1          53
  31        1          2          39  43
  32        1          3          35  42  53
  33        1          1          61
  34        1          1          50
  35        1          1          52
  36        1          3          45  47  60
  37        1          1          49
  38        1          1          43
  39        1          1          57
  40        1          3          46  52  54
  41        1          2          46  49
  42        1          3          47  50  56
  43        1          3          45  48  57
  44        1          2          48  58
  45        1          1          58
  46        1          2          48  59
  47        1          1          54
  48        1          2          53  56
  49        1          2          55  56
  50        1          1          51
  51        1          3          52  60  61
  52        1          1          57
  53        1          1          55
  54        1          2          55  58
  55        1          1          61
  56        1          1          60
  57        1          1          59
  58        1          1          59
  59        1          1          62
  60        1          1          62
  61        1          1          62
  62        1          0        
************************************************************************
REQUESTS/DURATIONS:
jobnr. mode duration  R 1  R 2  R 3  R 4
------------------------------------------------------------------------
  1      1     0       0    0    0    0
  2      1     4       0    3    0    0
  3      1     6       0    0    0    1
  4      1     5       3    0    0    0
  5      1     7       0    0   10    0
  6      1     4       0    0    6    0
  7      1     1       0    0    9    0
  8      1     4       0    0    0    3
  9      1     7      10    0    0    0
 10      1     5       0    0    6    0
 11      1     4       0    0    5    0
 12      1     7       0    0    2    0
 13      1     4       0    0    0    4
 14      1     2       0    8    0    0
 15      1     2       0    6    0    0
 16      1     4       0    0    0   10
 17      1     9       0    0    0    6
 18      1     9       0    0    5    0
 19      1     3       0    0    4    0
 20      1     8       7    0    0    0
 21      1     9       0    0    0    2
 22      1     9       0    4    0    0
 23      1    10       0    0    0   10
 24      1     8       0    0   10    0
 25      1     7       0    7    0    0
 26      1     2       0   10    0    0
 27      1     4       0    0    0   10
 28      1     9       0    0    0    7
 29      1     2       0    0    0    3
 30      1     7       8    0    0    0
 31      1     2       6    0    0    0
 32      1     8       3    0    0    0
 33      1     7       0    1    0    0
 34      1     5       2    0    0    0
 35      1    10       0    0    0    1
 36      1     1       0    1    0    0
 37      1     3       9    0    0    0
 38      1     5       0    0    0    6
 39      1    10       2    0    0    0
 40      1     2       0    0    0    3
 41      1     1       4    0    0    0
 42      1     8       0    7    0    0
 43      1     8       0    9    0    0
 44      1     2       0    0    0    7
 45      1     3       0    0    7    0
 46      1     6       0    0    7    0
 47      1     5       0    0    0    4
 48      1     3       0    0    0    1
 49      1     6       5    0    0    0
 50      1     9       0    0    0   10
 51      1     2       0    0    7    0
 52      1     5       0    9    0    0
 53      1     1       0    0    0    2
 54      1     4       0    2    0    0
 55      1     8       0    0    0    6
 56      1     6       9    0    0    0
 57      1     1       6    0    0    0
 58      1     7       0    5    0    0
 59      1     4       7    0    0    0
 60      1     6       0    4    0    0
 61      1    10       3    0    0    0
 62      1     0       0    0    0    0
************************************************************************
RESOURCEAVAILABILITIES:
  R 1  R 2  R 3  R 4
   15   18   24   20
************************************************************************
